Tried aggregator 1 time.
MIP Presolve eliminated 7 rows and 5 columns.
MIP Presolve modified 1 coefficients.
Reduced MIP has 14 rows, 17 columns, and 44 nonzeros.
Reduced MIP has 7 binaries, 0 generals, 0 SOSs, and 0 indicators.
Presolve time = 0.00 sec. (0.03 ticks)
Found incumbent of value 4.000000 after 0.00 sec. (0.08 ticks)
Probing fixed 0 vars, tightened 2 bounds.
Probing changed sense of 1 constraints.
Probing time = 0.00 sec. (0.01 ticks)
Tried aggregator 2 times.
Aggregator did 1 substitutions.
Reduced MIP has 13 rows, 16 columns, and 38 nonzeros.
Reduced MIP has 6 binaries, 0 generals, 0 SOSs, and 0 indicators.
Presolve time = 0.00 sec. (0.03 ticks)
Probing fixed 1 vars, tightened 1 bounds.
Probing changed sense of 1 constraints.
Probing time = 0.00 sec. (0.01 ticks)
Cover probing fixed 0 vars, tightened 22 bounds.
Clique table members: 4.
MIP emphasis: balance optimality and feasibility.
MIP search method: dynamic search.
Parallel mode: deterministic, using up to 4 threads.
Root relaxation solution time = 0.00 sec. (0.01 ticks)

        Nodes                                         Cuts/
   Node  Left     Objective  IInf  Best Integer    Best Bound    ItCnt     Gap

*     0+    0                            4.0000        1.0000            75.00%
      0     0        cutoff              4.0000                      0    0.00%

Root node processing (before b&c):
  Real time             =    0.01 sec. (0.17 ticks)
Parallel b&c, 4 threads:
  Real time             =    0.00 sec. (0.00 ticks)
  Sync time (average)   =    0.00 sec.
  Wait time (average)   =    0.00 sec.
                          ------------
Total (root+branch&cut) =    0.01 sec. (0.17 ticks)
Minimum Cost = 4
1 - 3
2 - 3
2 - 4
